projected/problems_b25_r0_d7_m100_s666/_DIMACS/b25_d7_r0_s666_028.cnf
p cnf 187 267 25
c p show 1 2 3 4 5 6 7 8 9 10 11 12 13 14 15 16 17 18 19 20 21 22 23 24 25
-58 2 0
-58 8 0
-59 -18 25 0
-60 59 58 0
-61 -7 0
-61 -5 0
-62 15 0
-62 25 0
-63 62 61 0
-64 63 60 0
-65 15 22 0
-66 -1 19 0
-67 66 65 0
-68 -16 4 0
-69 13 0
-69 -5 0
-70 69 68 0
-71 70 0
-71 67 0
-72 71 0
-72 64 0
-73 -25 0
-73 11 0
-74 -6 -19 0
-75 74 0
-75 73 0
-76 6 0
-76 19 0
-77 25 -11 0
-78 77 0
-78 76 0
-79 78 75 0
-80 23 -4 0
-81 4 -23 0
-82 81 0
-82 80 0
-83 8 0
-83 6 0
-84 83 82 0
-85 84 0
-85 79 0
-86 -23 0
-86 4 0
-87 -4 0
-87 23 0
-88 87 86 0
-89 -8 -6 0
-90 89 0
-90 88 0
-91 76 77 0
-92 73 74 0
-93 92 0
-93 91 0
-94 93 0
-94 90 0
-95 94 85 0
-96 8 0
-96 -5 0
-97 18 23 0
-98 97 96 0
-99 2 -5 0
-100 1 0
-100 -10 0
-101 100 99 0
-102 -1 10 0
-103 -2 0
-103 5 0
-104 103 102 0
-105 104 0
-105 101 0
-106 105 98 0
-107 106 95 0
-108 107 72 0
-109 18 21 0
-110 9 0
-110 23 0
-111 110 0
-111 109 0
-112 21 0
-112 18 0
-113 -18 0
-113 -21 0
-114 113 112 0
-115 -13 -6 0
-116 115 0
-116 114 0
-117 116 111 0
-118 -16 19 0
-119 -2 0
-119 14 0
-120 119 0
-120 118 0
-121 -18 0
-121 -24 0
-122 24 0
-122 18 0
-123 122 121 0
-124 -23 0
-124 1 0
-125 124 123 0
-126 125 120 0
-127 126 0
-127 117 0
-128 17 0
-128 16 0
-129 14 0
-129 18 0
-130 -18 0
-130 -14 0
-131 130 129 0
-132 131 0
-132 128 0
-133 -24 0
-133 -8 0
-134 23 0
-134 10 0
-135 134 133 0
-136 135 0
-136 132 0
-137 -16 -1 0
-138 -17 -15 0
-139 138 137 0
-140 15 0
-140 -3 0
-141 3 0
-141 -15 0
-142 141 140 0
-143 6 0
-143 -2 0
-144 143 142 0
-145 144 0
-145 139 0
-146 145 0
-146 136 0
-147 146 127 0
-148 147 0
-148 108 0
-149 -23 0
-149 23 0
-150 24 0
-150 6 0
-151 150 149 0
-152 6 -3 0
-153 7 0
-153 -7 0
-154 153 0
-154 152 0
-155 154 0
-155 151 0
-156 5 0
-156 8 0
-157 15 -6 0
-158 157 156 0
-159 3 14 0
-160 -14 -3 0
-161 160 0
-161 159 0
-162 -5 8 0
-163 162 161 0
-164 163 0
-164 158 0
-165 164 0
-165 155 0
-166 4 0
-166 5 0
-167 -5 4 0
-168 167 0
-168 166 0
-169 -23 0
-169 7 0
-170 -7 0
-170 23 0
-171 170 169 0
-172 24 19 0
-173 172 0
-173 171 0
-174 173 0
-174 168 0
-175 6 0
-175 25 0
-176 -15 0
-176 9 0
-177 176 175 0
-178 -17 0
-178 -3 0
-179 -19 2 0
-180 179 178 0
-181 180 0
-181 177 0
-182 181 0
-182 174 0
-183 182 0
-183 165 0
-184 12 -17 0
-185 10 0
-185 -15 0
-186 185 184 0
-187 -10 15 0
-26 -12 0
-26 17 0
-27 26 187 0
-28 27 0
-28 186 0
-36 1 0
-36 -3 0
-43 36 0
-43 59 0
-49 43 0
-49 28 0
-54 -7 0
-54 4 0
-55 -21 0
-55 -9 0
-56 55 0
-56 54 0
-57 6 0
-57 9 0
-29 11 0
-29 12 0
-30 29 57 0
-31 30 56 0
-32 31 49 0
-33 -17 0
-33 9 0
-34 178 0
-34 33 0
-35 -7 -17 0
-37 20 11 0
-38 -11 -20 0
-39 38 0
-39 37 0
-40 39 0
-40 35 0
-41 40 0
-41 34 0
-42 -6 23 0
-44 17 22 0
-45 44 0
-45 42 0
-46 -14 0
-46 -21 0
-47 4 0
-47 15 0
-48 47 46 0
-50 48 45 0
-51 50 0
-51 41 0
-52 51 32 0
-53 52 0
-53 183 0
53 148 0
-82 -88 0
-88 -82 0
-89 -83 0
-90 -84 0
-84 -90 0
-76 -74 0
-74 -76 0
-73 -77 0
-77 -73 0
-93 -79 0
-102 -100 0
-99 -103 0
-185 -187 0
-187 -185 0
-26 -184 0
-184 -26 0
