projected/problems_b25_r0_d7_m100_s666/b25_d7_r0_s666_028.smt2
(set-logic QF_UF)
(declare-fun A0 () Bool)
(declare-fun A1 () Bool)
(declare-fun A2 () Bool)
(declare-fun A3 () Bool)
(declare-fun A4 () Bool)
(declare-fun A5 () Bool)
(declare-fun A6 () Bool)
(declare-fun A7 () Bool)
(declare-fun A8 () Bool)
(declare-fun A9 () Bool)
(declare-fun A10 () Bool)
(declare-fun A11 () Bool)
(declare-fun A12 () Bool)
(declare-fun A13 () Bool)
(declare-fun A14 () Bool)
(declare-fun A15 () Bool)
(declare-fun A16 () Bool)
(declare-fun A17 () Bool)
(declare-fun A18 () Bool)
(declare-fun A19 () Bool)
(declare-fun A20 () Bool)
(declare-fun A21 () Bool)
(declare-fun A22 () Bool)
(declare-fun A23 () Bool)
(declare-fun A24 () Bool)
(assert (let ((.def_0 (and A1 A7))) (let ((.def_1 (not .def_0))) (let ((.def_2 (not A17))) (let ((.def_3 (or .def_2 A24))) (let ((.def_4 (not .def_3))) (let ((.def_5 (and .def_4 .def_1))) (let ((.def_6 (not .def_5))) (let ((.def_7 (not A4))) (let ((.def_8 (not A6))) (let ((.def_9 (and .def_8 .def_7))) (let ((.def_10 (and A14 A24))) (let ((.def_11 (or .def_10 .def_9))) (let ((.def_12 (or .def_11 .def_6))) (let ((.def_13 (not A21))) (let ((.def_14 (not A14))) (let ((.def_15 (and .def_14 .def_13))) (let ((.def_16 (not .def_15))) (let ((.def_17 (not A18))) (let ((.def_18 (and A0 .def_17))) (let ((.def_19 (not .def_18))) (let ((.def_20 (or .def_19 .def_16))) (let ((.def_21 (not .def_20))) (let ((.def_22 (not A15))) (let ((.def_23 (or .def_22 A3))) (let ((.def_24 (not .def_23))) (let ((.def_25 (and A12 .def_7))) (let ((.def_26 (not .def_25))) (let ((.def_27 (and .def_26 .def_24))) (let ((.def_28 (or .def_27 .def_21))) (let ((.def_29 (not .def_28))) (let ((.def_30 (and .def_29 .def_12))) (let ((.def_31 (not A22))) (let ((.def_32 (not A3))) (let ((.def_33 (= .def_32 .def_31))) (let ((.def_34 (not .def_33))) (let ((.def_35 (not A5))) (let ((.def_36 (not A7))) (let ((.def_37 (or .def_36 .def_35))) (let ((.def_38 (and .def_37 .def_34))) (let ((.def_39 (not .def_38))) (let ((.def_40 (and A5 A18))) (let ((.def_41 (not .def_40))) (let ((.def_42 (not A24))) (let ((.def_43 (and .def_42 A10))) (let ((.def_44 (not .def_43))) (let ((.def_45 (= .def_44 .def_41))) (let ((.def_46 (= .def_45 .def_39))) (let ((.def_47 (not .def_46))) (let ((.def_48 (and A7 .def_7))) (let ((.def_49 (or A17 A22))) (let ((.def_50 (or .def_49 .def_48))) (let ((.def_51 (not .def_50))) (let ((.def_52 (not A0))) (let ((.def_53 (or .def_52 A9))) (let ((.def_54 (or A1 .def_7))) (let ((.def_55 (= .def_54 .def_53))) (let ((.def_56 (not .def_55))) (let ((.def_57 (and .def_56 .def_51))) (let ((.def_58 (not .def_57))) (let ((.def_59 (or .def_58 .def_47))) (let ((.def_60 (or .def_59 .def_30))) (let ((.def_61 (or A17 A20))) (let ((.def_62 (and A8 A22))) (let ((.def_63 (and .def_62 .def_61))) (let ((.def_64 (= .def_2 A20))) (let ((.def_65 (not .def_64))) (let ((.def_66 (not A12))) (let ((.def_67 (or .def_66 .def_35))) (let ((.def_68 (and .def_67 .def_65))) (let ((.def_69 (or .def_68 .def_63))) (let ((.def_70 (and A15 .def_17))) (let ((.def_71 (not .def_70))) (let ((.def_72 (not A13))) (let ((.def_73 (or A1 .def_72))) (let ((.def_74 (not .def_73))) (let ((.def_75 (and .def_74 .def_71))) (let ((.def_76 (= A23 .def_2))) (let ((.def_77 (and .def_31 A0))) (let ((.def_78 (not .def_77))) (let ((.def_79 (and .def_78 .def_76))) (let ((.def_80 (not .def_79))) (let ((.def_81 (or .def_80 .def_75))) (let ((.def_82 (and .def_81 .def_69))) (let ((.def_83 (not A16))) (let ((.def_84 (or .def_83 .def_22))) (let ((.def_85 (= .def_2 A13))) (let ((.def_86 (or .def_85 .def_84))) (let ((.def_87 (or A23 A7))) (let ((.def_88 (not .def_87))) (let ((.def_89 (not A9))) (let ((.def_90 (or .def_31 .def_89))) (let ((.def_91 (not .def_90))) (let ((.def_92 (or .def_91 .def_88))) (let ((.def_93 (not .def_92))) (let ((.def_94 (or .def_93 .def_86))) (let ((.def_95 (not .def_94))) (let ((.def_96 (or .def_22 .def_52))) (let ((.def_97 (not .def_96))) (let ((.def_98 (or .def_83 .def_14))) (let ((.def_99 (not .def_98))) (let ((.def_100 (and .def_99 .def_97))) (let ((.def_101 (not .def_100))) (let ((.def_102 (= A2 A14))) (let ((.def_103 (not A1))) (let ((.def_104 (and A5 .def_103))) (let ((.def_105 (not .def_104))) (let ((.def_106 (and .def_105 .def_102))) (let ((.def_107 (not .def_106))) (let ((.def_108 (and .def_107 .def_101))) (let ((.def_109 (and .def_108 .def_95))) (let ((.def_110 (or .def_109 .def_82))) (let ((.def_111 (and .def_110 .def_60))) (let ((.def_112 (or A22 .def_31))) (let ((.def_113 (not A23))) (let ((.def_114 (or .def_113 .def_35))) (let ((.def_115 (and .def_114 .def_112))) (let ((.def_116 (not A2))) (let ((.def_117 (or A5 .def_116))) (let ((.def_118 (and A6 .def_8))) (let ((.def_119 (and .def_118 .def_117))) (let ((.def_120 (not .def_119))) (let ((.def_121 (or .def_120 .def_115))) (let ((.def_122 (not .def_121))) (let ((.def_123 (and A4 A7))) (let ((.def_124 (or A14 .def_35))) (let ((.def_125 (or .def_124 .def_123))) (let ((.def_126 (= A13 .def_116))) (let ((.def_127 (not .def_126))) (let ((.def_128 (and A4 .def_36))) (let ((.def_129 (and .def_128 .def_127))) (let ((.def_130 (not .def_129))) (let ((.def_131 (and .def_130 .def_125))) (let ((.def_132 (and .def_131 .def_122))) (let ((.def_133 (and A3 A4))) (let ((.def_134 (not .def_133))) (let ((.def_135 (or .def_7 A3))) (let ((.def_136 (not .def_135))) (let ((.def_137 (or .def_136 .def_134))) (let ((.def_138 (= .def_8 .def_31))) (let ((.def_139 (or A23 A18))) (let ((.def_140 (not .def_139))) (let ((.def_141 (or .def_140 .def_138))) (let ((.def_142 (or .def_141 .def_137))) (let ((.def_143 (or .def_35 .def_42))) (let ((.def_144 (not .def_143))) (let ((.def_145 (not A8))) (let ((.def_146 (or A14 .def_145))) (let ((.def_147 (not .def_146))) (let ((.def_148 (or .def_147 .def_144))) (let ((.def_149 (not .def_148))) (let ((.def_150 (or A16 A2))) (let ((.def_151 (not .def_150))) (let ((.def_152 (and A18 .def_103))) (let ((.def_153 (not .def_152))) (let ((.def_154 (or .def_153 .def_151))) (let ((.def_155 (not .def_154))) (let ((.def_156 (or .def_155 .def_149))) (let ((.def_157 (or .def_156 .def_142))) (let ((.def_158 (not .def_157))) (let ((.def_159 (and .def_158 .def_132))) (let ((.def_160 (not .def_159))) (let ((.def_161 (and A9 .def_14))) (let ((.def_162 (not .def_161))) (let ((.def_163 (not A11))) (let ((.def_164 (and .def_163 A16))) (let ((.def_165 (not .def_164))) (let ((.def_166 (= .def_165 .def_162))) (let ((.def_167 (not .def_166))) (let ((.def_168 (and A0 .def_116))) (let ((.def_169 (and .def_168 .def_3))) (let ((.def_170 (not .def_169))) (let ((.def_171 (or .def_170 .def_167))) (let ((.def_172 (not .def_171))) (let ((.def_173 (or A6 .def_32))) (let ((.def_174 (not .def_173))) (let ((.def_175 (not A20))) (let ((.def_176 (and .def_175 .def_145))) (let ((.def_177 (and .def_176 .def_174))) (let ((.def_178 (not .def_177))) (let ((.def_179 (and A5 A8))) (let ((.def_180 (not A10))) (let ((.def_181 (or .def_180 .def_163))) (let ((.def_182 (not .def_181))) (let ((.def_183 (or .def_182 .def_179))) (let ((.def_184 (not .def_183))) (let ((.def_185 (and .def_184 .def_178))) (let ((.def_186 (not .def_185))) (let ((.def_187 (or .def_186 .def_172))) (let ((.def_188 (and .def_83 A8))) (let ((.def_189 (not .def_188))) (let ((.def_190 (or .def_150 .def_189))) (let ((.def_191 (not .def_190))) (let ((.def_192 (or .def_8 .def_83))) (let ((.def_193 (not A19))) (let ((.def_194 (= A10 .def_193))) (let ((.def_195 (and .def_194 .def_192))) (let ((.def_196 (and .def_195 .def_191))) (let ((.def_197 (not .def_196))) (let ((.def_198 (and A5 .def_31))) (let ((.def_199 (not .def_198))) (let ((.def_200 (or A16 A21))) (let ((.def_201 (and .def_200 .def_199))) (let ((.def_202 (not .def_201))) (let ((.def_203 (or A13 A20))) (let ((.def_204 (not .def_203))) (let ((.def_205 (and A3 A14))) (let ((.def_206 (or .def_205 .def_204))) (let ((.def_207 (not .def_206))) (let ((.def_208 (and .def_207 .def_202))) (let ((.def_209 (or .def_208 .def_197))) (let ((.def_210 (not .def_209))) (let ((.def_211 (or .def_210 .def_187))) (let ((.def_212 (not .def_211))) (let ((.def_213 (or .def_212 .def_160))) (let ((.def_214 (not .def_213))) (let ((.def_215 (or .def_214 .def_111))) .def_215)))))))))))))))))))))))))))))))))))))))))))))))))))))))))))))))))))))))))))))))))))))))))))))))))))))))))))))))))))))))))))))))))))))))))))))))))))))))))))))))))))))))))))))))))))))))))))))))))))))))))))))))))))))))))
(check-sat)
